p tw 28 61
1 14
1 9
1 4
2 23
2 9
2 10
2 3
3 16
3 11
3 10
4 7
4 21
5 6
5 8
5 17
6 24
6 18
6 8
7 27
7 24
7 10
8 27
8 20
8 16
9 23
9 14
9 15
9 10
10 15
11 26
11 16
11 12
11 19
12 26
12 13
12 22
13 25
13 18
13 22
14 15
14 28
15 28
16 20
16 19
17 18
17 19
18 24
18 25
18 19
19 20
20 21
20 22
21 28
21 22
22 28
23 25
23 24
24 25
26 27
26 28
27 28
